Geographic Exponential Decay
40 153 70 130 93 231 260 55 150 259 74 164 107 34 216 195 24 68 169 244 281 117 2 133 246 129 161 56 126 165 8 61 307 234 288 315 227 138 86 119 301
p edge 320 1252
e 0 275 5.0
e 1 102 10.0
e 1 124 22.0
e 2 75 54.0
e 2 61 86.0
e 2 73 17.0
e 2 213 36.0
e 2 6 14.0
e 2 146 90.0
e 2 97 33.0
e 2 67 15.0
e 2 36 7.0
e 2 296 9.0
e 2 68 86.0
e 2 42 33.0
e 2 74 8.0
e 2 280 60.0
e 2 185 73.0
e 2 167 48.0
e 2 161 69.0
e 2 207 60.0
e 2 224 100.0
e 2 231 79.0
e 2 230 22.0
e 2 187 59.0
e 2 240 38.0
e 2 298 75.0
e 2 276 14.0
e 2 265 20.0
e 2 270 68.0
e 3 85 5.0
e 4 173 1.0
e 5 213 1.0
e 7 250 2.0
e 8 255 84.0
e 8 250 32.0
e 8 9 11.0
e 8 84 36.0
e 8 29 48.0
e 8 254 8.0
e 8 183 56.0
e 8 133 98.0
e 8 68 23.0
e 8 87 47.0
e 8 171 78.0
e 8 100 75.0
e 8 260 31.0
e 8 114 61.0
e 8 85 40.0
e 8 167 84.0
e 8 280 2.0
e 8 220 34.0
e 8 256 45.0
e 8 315 57.0
e 8 144 100.0
e 8 66 8.0
e 8 303 21.0
e 8 13 13.0
e 8 221 99.0
e 8 39 6.0
e 8 285 74.0
e 10 229 1.0
e 11 101 1.0
e 12 187 1.0
e 14 43 1.0
e 15 81 1.0
e 16 159 2.0
e 17 54 3.0
e 17 251 7.0
e 17 295 3.0
e 17 100 2.0
e 18 2 65.0
e 18 220 4.0
e 19 160 7.0
e 20 49 1.0
e 21 170 9.0
e 21 91 2.0
e 21 287 9.0
e 21 148 11.0
e 22 154 4.0
e 22 40 1.0
e 23 34 23.0
e 23 312 4.0
e 24 51 97.0
e 24 19 55.0
e 24 7 92.0
e 24 151 14.0
e 24 277 81.0
e 24 68 91.0
e 24 214 69.0
e 24 8 28.0
e 24 227 57.0
e 24 224 95.0
e 24 181 4.0
e 24 257 15.0
e 24 90 78.0
e 24 202 58.0
e 24 123 34.0
e 24 152 66.0
e 24 28 29.0
e 24 134 61.0
e 24 317 18.0
e 24 64 16.0
e 24 44 63.0
e 24 23 40.0
e 24 221 76.0
e 24 193 99.0
e 24 27 39.0
e 24 20 74.0
e 24 298 35.0
e 25 2 38.0
e 26 311 3.0
e 27 146 5.0
e 28 239 1.0
e 30 6 1.0
e 31 22 1.0
e 31 251 23.0
e 32 194 1.0
e 33 168 3.0
e 33 47 1.0
e 34 207 49.0
e 34 209 88.0
e 34 107 93.0
e 34 106 12.0
e 34 199 17.0
e 34 158 6.0
e 34 181 10.0
e 34 235 35.0
e 34 188 95.0
e 34 56 77.0
e 34 283 9.0
e 34 6 37.0
e 34 11 31.0
e 34 140 55.0
e 34 8 75.0
e 34 314 57.0
e 34 52 16.0
e 34 179 85.0
e 34 294 61.0
e 34 304 42.0
e 34 249 4.0
e 34 270 49.0
e 34 200 100.0
e 34 108 74.0
e 34 186 79.0
e 34 160 91.0
e 35 129 24.0
e 37 166 8.0
e 37 126 61.0
e 37 12 7.0
e 37 261 2.0
e 38 200 1.0
e 41 275 4.0
e 41 193 2.0
e 42 225 1.0
e 45 263 1.0
e 45 158 6.0
e 46 157 2.0
e 48 199 1.0
e 50 53 1.0
e 52 71 23.0
e 52 35 12.0
e 52 294 11.0
e 52 268 6.0
e 52 255 24.0
e 52 112 12.0
e 53 98 1.0
e 55 22 95.0
e 55 247 88.0
e 55 228 7.0
e 55 235 11.0
e 55 256 90.0
e 55 282 43.0
e 55 79 41.0
e 55 318 9.0
e 55 14 81.0
e 55 108 70.0
e 55 250 33.0
e 55 215 40.0
e 55 75 58.0
e 55 263 64.0
e 55 26 19.0
e 55 227 57.0
e 55 181 61.0
e 55 47 52.0
e 55 257 48.0
e 55 222 30.0
e 55 111 78.0
e 55 124 35.0
e 55 132 58.0
e 55 36 36.0
e 55 27 35.0
e 55 101 5.0
e 55 34 85.0
e 56 186 94.0
e 56 216 56.0
e 56 129 44.0
e 56 194 70.0
e 56 209 33.0
e 56 166 62.0
e 56 26 86.0
e 56 206 22.0
e 56 183 9.0
e 56 32 43.0
e 56 167 17.0
e 56 42 28.0
e 56 248 46.0
e 56 27 25.0
e 56 78 82.0
e 56 282 67.0
e 56 221 96.0
e 56 5 15.0
e 56 157 80.0
e 56 231 60.0
e 56 311 89.0
e 56 47 31.0
e 56 307 99.0
e 56 304 36.0
e 56 287 95.0
e 56 256 65.0
e 57 238 1.0
e 57 201 1.0
e 58 23 1.0
e 59 194 1.0
e 60 277 1.0
e 61 63 85.0
e 61 230 77.0
e 61 27 67.0
e 61 207 68.0
e 61 186 13.0
e 61 95 51.0
e 61 226 19.0
e 61 119 73.0
e 61 231 83.0
e 61 36 38.0
e 61 242 79.0
e 61 225 78.0
e 61 192 30.0
e 61 232 73.0
e 61 283 95.0
e 61 130 60.0
e 61 10 37.0
e 61 88 2.0
e 61 44 67.0
e 61 195 71.0
e 61 233 93.0
e 61 302 46.0
e 61 215 23.0
e 61 96 7.0
e 61 64 26.0
e 61 25 76.0
e 62 313 1.0
e 63 285 24.0
e 63 279 3.0
e 63 248 5.0
e 63 191 2.0
e 63 252 17.0
e 63 305 14.0
e 65 22 4.0
e 66 261 8.0
e 66 195 83.0
e 66 299 32.0
e 66 202 15.0
e 66 95 50.0
e 66 156 39.0
e 66 255 19.0
e 66 192 4.0
e 66 28 24.0
e 66 123 2.0
e 66 150 95.0
e 66 246 78.0
e 66 13 45.0
e 68 134 93.0
e 68 72 35.0
e 68 250 57.0
e 68 74 76.0
e 68 7 68.0
e 68 217 2.0
e 68 310 10.0
e 68 282 38.0
e 68 151 89.0
e 68 257 89.0
e 68 96 29.0
e 68 93 76.0
e 68 84 42.0
e 68 35 48.0
e 68 298 71.0
e 68 60 44.0
e 68 19 56.0
e 68 1 29.0
e 68 267 44.0
e 68 275 16.0
e 68 83 19.0
e 68 248 94.0
e 68 229 80.0
e 68 231 81.0
e 69 26 3.0
e 69 204 3.0
e 70 195 76.0
e 70 192 3.0
e 70 69 64.0
e 70 221 66.0
e 70 143 93.0
e 70 83 57.0
e 70 223 42.0
e 70 200 55.0
e 70 39 75.0
e 70 8 29.0
e 70 115 31.0
e 70 163 97.0
e 70 231 100.0
e 70 47 87.0
e 70 41 52.0
e 70 125 1.0
e 70 129 47.0
e 70 288 12.0
e 70 132 15.0
e 70 189 87.0
e 70 259 78.0
e 70 172 3.0
e 70 222 53.0
e 70 93 80.0
e 70 291 67.0
e 70 154 44.0
e 70 313 10.0
e 71 189 2.0
e 74 275 50.0
e 74 147 5.0
e 74 61 73.0
e 74 72 44.0
e 74 181 6.0
e 74 136 73.0
e 74 311 86.0
e 74 200 30.0
e 74 56 100.0
e 74 171 60.0
e 74 238 58.0
e 74 234 12.0
e 74 223 66.0
e 74 213 72.0
e 74 241 44.0
e 74 153 30.0
e 74 276 24.0
e 74 140 80.0
e 74 114 57.0
e 74 67 67.0
e 74 141 74.0
e 74 142 41.0
e 74 314 53.0
e 74 289 91.0
e 74 162 19.0
e 76 1 1.0
e 77 160 11.0
e 77 21 5.0
e 78 230 1.0
e 80 244 60.0
e 82 287 3.0
e 86 168 50.0
e 86 141 79.0
e 86 201 86.0
e 86 0 56.0
e 86 312 73.0
e 86 202 33.0
e 86 187 1.0
e 86 167 41.0
e 86 75 8.0
e 86 93 13.0
e 86 286 26.0
e 86 291 56.0
e 86 249 3.0
e 86 58 47.0
e 86 43 44.0
e 86 276 35.0
e 86 217 2.0
e 86 152 7.0
e 86 79 93.0
e 86 120 74.0
e 86 94 85.0
e 86 125 51.0
e 86 33 81.0
e 86 159 15.0
e 86 292 38.0
e 86 265 11.0
e 86 248 63.0
e 87 78 7.0
e 87 114 8.0
e 87 203 6.0
e 89 290 5.0
e 89 240 2.0
e 90 132 23.0
e 90 155 21.0
e 90 159 13.0
e 90 179 50.0
e 90 246 40.0
e 90 120 35.0
e 90 292 21.0
e 90 287 39.0
e 90 109 16.0
e 90 191 45.0
e 90 316 37.0
e 90 26 7.0
e 90 70 39.0
e 92 255 2.0
e 93 4 76.0
e 93 136 95.0
e 93 92 22.0
e 93 298 66.0
e 93 76 69.0
e 93 88 99.0
e 93 309 25.0
e 93 310 86.0
e 93 103 24.0
e 93 146 17.0
e 93 14 16.0
e 93 316 4.0
e 93 213 61.0
e 93 318 29.0
e 93 235 74.0
e 93 216 22.0
e 93 10 28.0
e 93 79 69.0
e 93 61 59.0
e 93 63 6.0
e 93 302 73.0
e 93 225 96.0
e 93 87 93.0
e 93 39 67.0
e 99 245 1.0
e 102 62 1.0
e 102 281 56.0
e 102 315 11.0
e 103 194 2.0
e 104 151 2.0
e 105 36 23.0
e 105 54 31.0
e 105 194 5.0
e 105 158 33.0
e 105 223 45.0
e 105 272 17.0
e 105 157 21.0
e 105 225 18.0
e 105 196 23.0
e 105 95 11.0
e 105 280 34.0
e 105 286 26.0
e 105 229 42.0
e 105 300 1.0
e 107 225 79.0
e 107 59 33.0
e 107 104 79.0
e 107 63 55.0
e 107 201 25.0
e 107 94 100.0
e 107 242 35.0
e 107 282 4.0
e 107 139 11.0
e 107 301 18.0
e 107 111 88.0
e 107 243 74.0
e 107 254 5.0
e 107 189 98.0
e 107 67 39.0
e 107 77 79.0
e 107 222 99.0
e 107 235 11.0
e 107 96 98.0
e 107 105 44.0
e 107 132 11.0
e 107 60 48.0
e 107 232 74.0
e 107 244 18.0
e 107 170 40.0
e 107 184 90.0
e 109 230 2.0
e 109 91 16.0
e 109 63 8.0
e 109 294 3.0
e 109 273 6.0
e 109 250 9.0
e 110 51 38.0
e 110 268 39.0
e 110 22 43.0
e 110 31 38.0
e 110 308 10.0
e 110 230 12.0
e 110 137 22.0
e 110 32 6.0
e 110 224 49.0
e 110 256 31.0
e 110 260 52.0
e 110 174 35.0
e 110 36 9.0
e 110 280 32.0
e 113 15 1.0
e 115 288 96.0
e 116 207 2.0
e 116 51 4.0
e 117 40 7.0
e 117 285 77.0
e 117 113 40.0
e 117 30 52.0
e 117 225 78.0
e 117 300 83.0
e 117 82 36.0
e 117 28 30.0
e 117 181 38.0
e 117 205 83.0
e 117 33 88.0
e 117 20 80.0
e 117 173 34.0
e 117 168 39.0
e 117 134 96.0
e 117 190 24.0
e 117 162 23.0
e 117 229 81.0
e 117 143 82.0
e 117 73 11.0
e 117 209 47.0
e 117 204 41.0
e 117 72 38.0
e 117 90 53.0
e 117 193 73.0
e 117 13 36.0
e 117 270 49.0
e 118 125 1.0
e 118 156 10.0
e 118 220 1.0
e 118 139 10.0
e 119 271 19.0
e 119 184 3.0
e 119 166 32.0
e 119 188 80.0
e 119 192 24.0
e 119 98 98.0
e 119 182 71.0
e 119 94 51.0
e 119 38 59.0
e 119 180 55.0
e 119 80 61.0
e 119 242 45.0
e 119 291 64.0
e 119 115 91.0
e 119 207 5.0
e 119 96 47.0
e 119 253 9.0
e 119 197 66.0
e 119 309 65.0
e 119 277 94.0
e 119 135 93.0
e 119 81 29.0
e 119 5 43.0
e 119 141 85.0
e 119 101 27.0
e 119 82 89.0
e 121 21 5.0
e 122 272 1.0
e 122 162 1.0
e 123 317 21.0
e 123 197 9.0
e 123 315 1.0
e 123 210 7.0
e 123 10 10.0
e 123 250 24.0
e 123 52 39.0
e 123 43 36.0
e 123 188 21.0
e 123 130 11.0
e 123 308 3.0
e 123 269 27.0
e 124 255 1.0
e 124 35 17.0
e 124 127 7.0
e 124 190 1.0
e 124 310 20.0
e 126 280 22.0
e 126 50 90.0
e 126 127 85.0
e 126 232 47.0
e 126 240 3.0
e 126 225 78.0
e 126 51 93.0
e 126 276 40.0
e 126 131 83.0
e 126 130 1.0
e 126 227 48.0
e 126 54 92.0
e 126 35 53.0
e 126 5 39.0
e 126 60 47.0
e 126 141 17.0
e 126 318 22.0
e 126 237 65.0
e 126 138 56.0
e 126 119 2.0
e 126 207 50.0
e 126 178 36.0
e 126 311 31.0
e 126 40 6.0
e 126 44 77.0
e 126 213 67.0
e 128 148 1.0
e 129 98 100.0
e 129 111 81.0
e 129 292 81.0
e 129 164 78.0
e 129 309 84.0
e 129 64 14.0
e 129 150 62.0
e 129 3 16.0
e 129 161 46.0
e 129 311 27.0
e 129 79 71.0
e 129 194 68.0
e 129 14 15.0
e 129 71 32.0
e 129 165 89.0
e 129 31 10.0
e 129 162 45.0
e 129 11 6.0
e 129 39 56.0
e 129 27 93.0
e 129 47 43.0
e 129 43 15.0
e 129 264 100.0
e 129 224 66.0
e 130 30 9.0
e 130 239 36.0
e 130 17 56.0
e 130 32 55.0
e 130 209 74.0
e 130 168 41.0
e 130 265 71.0
e 130 268 17.0
e 130 285 60.0
e 130 141 27.0
e 130 74 28.0
e 130 190 72.0
e 130 208 71.0
e 130 139 84.0
e 130 295 96.0
e 130 4 62.0
e 130 230 35.0
e 130 171 47.0
e 130 142 14.0
e 130 89 39.0
e 130 258 45.0
e 130 318 47.0
e 130 226 53.0
e 130 217 16.0
e 131 59 1.0
e 133 217 41.0
e 133 0 41.0
e 133 221 62.0
e 133 97 41.0
e 133 305 15.0
e 133 114 32.0
e 133 201 33.0
e 133 19 31.0
e 133 296 79.0
e 133 315 47.0
e 133 53 62.0
e 133 264 86.0
e 133 204 63.0
e 133 115 59.0
e 133 273 98.0
e 133 198 91.0
e 133 292 36.0
e 133 167 8.0
e 133 51 60.0
e 133 242 43.0
e 133 297 93.0
e 133 181 2.0
e 133 161 100.0
e 133 229 88.0
e 133 164 10.0
e 133 195 73.0
e 138 45 67.0
e 138 55 54.0
e 138 101 51.0
e 138 311 75.0
e 138 14 30.0
e 138 167 90.0
e 138 215 61.0
e 138 259 86.0
e 138 129 92.0
e 138 116 63.0
e 138 302 20.0
e 138 125 88.0
e 138 41 39.0
e 138 191 77.0
e 138 285 76.0
e 138 169 48.0
e 138 58 90.0
e 138 267 19.0
e 138 48 40.0
e 138 290 41.0
e 138 117 56.0
e 138 60 1.0
e 138 51 70.0
e 138 293 77.0
e 138 192 20.0
e 138 149 33.0
e 139 199 2.0
e 142 258 8.0
e 142 317 2.0
e 144 117 43.0
e 144 243 19.0
e 144 155 24.0
e 144 306 14.0
e 144 50 2.0
e 144 128 4.0
e 145 264 1.0
e 147 223 5.0
e 149 2 26.0
e 150 45 97.0
e 150 128 53.0
e 150 190 8.0
e 150 162 82.0
e 150 114 77.0
e 150 210 73.0
e 150 279 92.0
e 150 201 53.0
e 150 34 74.0
e 150 11 27.0
e 150 16 71.0
e 150 143 78.0
e 150 235 92.0
e 150 208 45.0
e 150 285 15.0
e 150 21 9.0
e 150 29 52.0
e 150 8 61.0
e 150 116 68.0
e 150 206 26.0
e 150 151 42.0
e 150 281 15.0
e 150 81 100.0
e 150 106 22.0
e 150 193 1.0
e 153 162 47.0
e 153 156 27.0
e 153 149 80.0
e 153 216 100.0
e 153 203 90.0
e 153 218 6.0
e 153 213 51.0
e 153 11 81.0
e 153 219 7.0
e 153 97 40.0
e 153 238 36.0
e 153 237 34.0
e 153 89 43.0
e 153 158 77.0
e 153 120 21.0
e 153 57 53.0
e 153 151 34.0
e 153 40 57.0
e 153 72 21.0
e 153 290 26.0
e 153 315 30.0
e 153 176 34.0
e 153 29 8.0
e 153 196 37.0
e 153 184 27.0
e 153 131 8.0
e 160 229 16.0
e 160 86 96.0
e 160 243 5.0
e 160 74 75.0
e 161 66 19.0
e 161 206 76.0
e 161 138 93.0
e 161 267 85.0
e 161 85 43.0
e 161 22 85.0
e 161 288 43.0
e 161 203 58.0
e 161 294 84.0
e 161 87 69.0
e 161 44 89.0
e 161 90 100.0
e 161 139 95.0
e 161 242 49.0
e 161 91 2.0
e 161 214 100.0
e 161 61 18.0
e 161 269 30.0
e 161 174 20.0
e 161 178 9.0
e 161 170 34.0
e 161 289 14.0
e 161 79 44.0
e 161 17 35.0
e 164 256 39.0
e 164 187 13.0
e 164 205 27.0
e 164 0 95.0
e 164 260 43.0
e 164 162 57.0
e 164 286 22.0
e 164 266 45.0
e 164 97 54.0
e 164 232 11.0
e 164 158 36.0
e 164 314 58.0
e 164 318 18.0
e 164 70 100.0
e 164 268 75.0
e 164 172 8.0
e 164 9 76.0
e 164 282 85.0
e 164 229 43.0
e 164 185 39.0
e 164 22 73.0
e 164 99 50.0
e 164 23 72.0
e 164 109 72.0
e 164 292 34.0
e 165 2 18.0
e 165 167 54.0
e 165 28 77.0
e 165 131 3.0
e 165 114 55.0
e 165 254 2.0
e 165 317 38.0
e 165 115 58.0
e 165 187 77.0
e 165 188 12.0
e 165 177 26.0
e 165 52 60.0
e 165 81 21.0
e 165 21 18.0
e 165 126 52.0
e 165 285 41.0
e 165 75 22.0
e 165 294 75.0
e 165 68 84.0
e 165 82 76.0
e 165 250 19.0
e 165 253 66.0
e 165 199 92.0
e 165 118 21.0
e 165 193 71.0
e 165 33 94.0
e 169 175 91.0
e 169 51 36.0
e 169 76 65.0
e 169 16 82.0
e 169 296 30.0
e 169 12 7.0
e 169 147 31.0
e 169 130 41.0
e 169 189 32.0
e 169 161 91.0
e 169 115 5.0
e 169 137 4.0
e 169 47 27.0
e 169 139 33.0
e 169 39 59.0
e 169 174 31.0
e 169 288 64.0
e 169 140 74.0
e 169 265 63.0
e 169 6 83.0
e 169 216 63.0
e 169 173 38.0
e 169 302 63.0
e 169 212 30.0
e 169 100 83.0
e 169 234 29.0
e 178 222 8.0
e 178 118 19.0
e 178 179 22.0
e 178 92 14.0
e 178 155 24.0
e 180 31 5.0
e 183 21 1.0
e 183 29 8.0
e 195 132 39.0
e 195 169 65.0
e 195 86 81.0
e 195 20 45.0
e 195 218 83.0
e 195 50 74.0
e 195 223 6.0
e 195 278 89.0
e 195 3 49.0
e 195 248 66.0
e 195 21 67.0
e 195 106 6.0
e 195 143 49.0
e 195 23 25.0
e 195 301 86.0
e 195 216 7.0
e 195 25 22.0
e 195 204 63.0
e 195 91 29.0
e 195 56 55.0
e 195 187 50.0
e 195 145 37.0
e 195 220 41.0
e 197 296 21.0
e 197 242 10.0
e 197 219 14.0
e 197 172 15.0
e 197 253 9.0
e 198 313 4.0
e 198 121 1.0
e 198 255 11.0
e 211 117 89.0
e 216 6 12.0
e 216 248 88.0
e 216 72 43.0
e 216 208 43.0
e 216 172 37.0
e 216 181 15.0
e 216 78 73.0
e 216 188 27.0
e 216 185 42.0
e 216 249 3.0
e 216 12 46.0
e 216 271 90.0
e 216 117 21.0
e 216 280 98.0
e 216 313 97.0
e 216 71 100.0
e 216 35 97.0
e 216 54 62.0
e 216 67 90.0
e 216 68 59.0
e 216 173 99.0
e 216 33 47.0
e 224 304 22.0
e 224 261 20.0
e 224 193 1.0
e 227 217 41.0
e 227 316 75.0
e 227 56 43.0
e 227 314 21.0
e 227 10 30.0
e 227 11 97.0
e 227 156 96.0
e 227 174 99.0
e 227 224 66.0
e 227 120 89.0
e 227 103 51.0
e 227 267 38.0
e 227 185 36.0
e 227 14 97.0
e 227 157 33.0
e 227 201 97.0
e 227 23 94.0
e 227 219 82.0
e 227 203 23.0
e 227 207 21.0
e 227 57 53.0
e 227 268 5.0
e 227 40 41.0
e 227 226 1.0
e 231 312 23.0
e 231 150 100.0
e 231 161 51.0
e 231 303 16.0
e 231 255 4.0
e 231 16 36.0
e 231 119 63.0
e 231 206 31.0
e 231 180 70.0
e 231 239 41.0
e 231 127 67.0
e 231 234 26.0
e 231 242 17.0
e 231 72 50.0
e 231 81 48.0
e 231 218 41.0
e 231 213 10.0
e 231 107 32.0
e 231 83 70.0
e 231 28 55.0
e 231 71 58.0
e 231 286 32.0
e 234 118 88.0
e 234 217 79.0
e 234 261 58.0
e 234 81 79.0
e 234 195 13.0
e 234 56 65.0
e 234 23 42.0
e 234 90 77.0
e 234 97 26.0
e 234 148 1.0
e 234 119 14.0
e 234 84 42.0
e 234 299 98.0
e 234 314 77.0
e 234 91 52.0
e 234 168 20.0
e 234 230 95.0
e 234 1 46.0
e 234 315 21.0
e 234 302 11.0
e 234 163 13.0
e 234 0 96.0
e 234 76 94.0
e 234 251 98.0
e 236 3 2.0
e 236 188 5.0
e 244 300 15.0
e 244 64 34.0
e 244 115 46.0
e 244 27 40.0
e 244 87 6.0
e 244 71 23.0
e 244 231 88.0
e 244 146 7.0
e 244 256 27.0
e 244 151 33.0
e 244 293 19.0
e 244 0 16.0
e 244 245 43.0
e 244 313 52.0
e 244 58 11.0
e 244 306 17.0
e 244 208 26.0
e 244 260 60.0
e 244 175 26.0
e 244 147 25.0
e 244 117 46.0
e 244 14 49.0
e 244 131 75.0
e 244 265 71.0
e 244 314 100.0
e 246 226 81.0
e 246 38 35.0
e 246 243 7.0
e 246 42 75.0
e 246 288 7.0
e 246 205 37.0
e 246 108 76.0
e 246 93 23.0
e 246 92 6.0
e 246 6 39.0
e 246 12 94.0
e 246 206 100.0
e 246 185 3.0
e 246 282 92.0
e 246 145 51.0
e 246 78 93.0
e 246 70 28.0
e 246 86 79.0
e 246 28 76.0
e 246 124 24.0
e 246 98 80.0
e 246 109 7.0
e 246 3 34.0
e 246 164 30.0
e 246 241 44.0
e 251 198 4.0
e 251 229 14.0
e 251 108 14.0
e 251 216 14.0
e 259 114 42.0
e 259 75 18.0
e 259 315 26.0
e 259 261 63.0
e 259 58 47.0
e 259 66 66.0
e 259 302 56.0
e 259 185 28.0
e 259 71 9.0
e 259 144 97.0
e 259 275 14.0
e 259 198 2.0
e 259 54 51.0
e 259 76 6.0
e 259 27 23.0
e 259 59 95.0
e 259 220 5.0
e 259 105 45.0
e 259 191 84.0
e 259 9 29.0
e 259 145 1.0
e 259 3 70.0
e 259 46 59.0
e 259 241 22.0
e 259 126 25.0
e 260 171 60.0
e 260 124 52.0
e 260 184 88.0
e 260 94 53.0
e 260 242 7.0
e 260 128 24.0
e 260 248 66.0
e 260 89 76.0
e 260 195 40.0
e 260 113 81.0
e 260 186 53.0
e 260 187 5.0
e 260 169 87.0
e 260 156 10.0
e 260 243 50.0
e 260 5 37.0
e 260 202 69.0
e 260 58 17.0
e 260 238 22.0
e 260 24 27.0
e 260 286 12.0
e 260 86 14.0
e 260 188 47.0
e 262 97 2.0
e 263 95 3.0
e 263 19 8.0
e 266 13 1.0
e 274 194 1.0
e 277 113 7.0
e 281 24 94.0
e 281 286 52.0
e 281 271 70.0
e 281 313 74.0
e 281 243 64.0
e 281 74 59.0
e 281 264 59.0
e 281 208 56.0
e 281 87 69.0
e 281 308 52.0
e 281 232 74.0
e 281 293 13.0
e 281 262 33.0
e 281 209 68.0
e 281 110 84.0
e 281 28 45.0
e 281 278 71.0
e 281 105 22.0
e 281 163 90.0
e 281 174 4.0
e 281 272 47.0
e 281 100 96.0
e 281 116 94.0
e 281 265 19.0
e 281 83 20.0
e 284 246 19.0
e 288 43 58.0
e 288 231 81.0
e 288 217 15.0
e 288 275 29.0
e 288 314 60.0
e 288 116 66.0
e 288 74 41.0
e 288 266 75.0
e 288 263 34.0
e 288 179 100.0
e 288 138 4.0
e 288 256 59.0
e 288 15 56.0
e 288 183 25.0
e 288 272 35.0
e 288 8 83.0
e 288 100 19.0
e 288 214 14.0
e 288 184 93.0
e 288 117 53.0
e 288 84 15.0
e 288 101 48.0
e 289 45 10.0
e 289 54 11.0
e 289 257 12.0
e 289 247 2.0
e 289 305 23.0
e 299 82 12.0
e 299 60 22.0
e 299 122 19.0
e 299 203 20.0
e 299 107 31.0
e 300 81 1.0
e 301 110 90.0
e 301 196 22.0
e 301 59 6.0
e 301 249 18.0
e 301 91 87.0
e 301 231 96.0
e 301 220 56.0
e 301 46 86.0
e 301 139 48.0
e 301 47 58.0
e 301 226 2.0
e 301 30 63.0
e 301 141 60.0
e 301 133 86.0
e 301 82 69.0
e 301 65 39.0
e 301 168 54.0
e 301 294 20.0
e 301 18 7.0
e 301 173 63.0
e 301 2 43.0
e 301 232 69.0
e 301 236 8.0
e 301 102 23.0
e 301 180 25.0
e 303 60 4.0
e 303 258 1.0
e 306 67 11.0
e 306 260 64.0
e 307 11 76.0
e 307 29 25.0
e 307 0 53.0
e 307 226 100.0
e 307 280 16.0
e 307 80 48.0
e 307 52 16.0
e 307 115 37.0
e 307 281 42.0
e 307 249 93.0
e 307 84 56.0
e 307 25 96.0
e 307 34 49.0
e 307 185 58.0
e 307 13 44.0
e 307 264 90.0
e 307 257 35.0
e 307 131 14.0
e 307 43 21.0
e 307 113 35.0
e 307 158 12.0
e 307 294 46.0
e 307 65 85.0
e 307 15 100.0
e 307 177 50.0
e 307 251 17.0
e 315 189 55.0
e 315 13 81.0
e 315 18 30.0
e 315 132 53.0
e 315 128 8.0
e 315 198 88.0
e 315 312 98.0
e 315 150 52.0
e 315 310 43.0
e 315 291 22.0
e 315 89 40.0
e 315 48 10.0
e 315 112 27.0
e 315 247 53.0
e 315 296 24.0
e 315 283 87.0
e 315 174 21.0
e 315 273 91.0
e 315 266 58.0
e 315 235 24.0
e 318 151 10.0
e 318 147 3.0
e 319 157 1.0
